results/res_prop_muc/res_Cimatti_mathsat_cores/QF_RDL/fischer3-mutex-5.smt
(benchmark fischer3_mutex_5.smt
  :source {
Source unknown
This benchmark was automatically translated into SMT-LIB format from
CVC format using CVC Lite
}
  :status unsat
:category { industrial }
:difficulty { 0 }
  :logic QF_RDL
  :extrafuns ((cvclZero Real))
  :extrasorts (ANY)
  :extrapreds ((x_0))
  :extrapreds ((x_1))
  :extrapreds ((x_2))
  :extrapreds ((x_3))
  :extrapreds ((x_4))
  :extrapreds ((x_5))
  :extrafuns ((x_6 Real))
  :extrafuns ((x_7 Real))
  :extrafuns ((x_8 Real))
  :extrafuns ((x_9 Real))
  :extrafuns ((x_10 Real))
  :extrapreds ((x_11))
  :extrapreds ((x_12))
  :extrafuns ((x_13 Real))
  :extrapreds ((x_14))
  :extrapreds ((x_15))
  :extrapreds ((x_16))
  :extrapreds ((x_17))
  :extrafuns ((x_18 Real))
  :extrafuns ((x_19 Real))
  :extrafuns ((x_20 Real))
  :extrafuns ((x_21 Real))
  :extrafuns ((x_22 Real))
  :extrafuns ((x_23 Real))
  :extrafuns ((x_24 Real))
  :extrapreds ((x_25))
  :extrapreds ((x_26))
  :extrafuns ((x_27 Real))
  :extrapreds ((x_28))
  :extrapreds ((x_29))
  :extrapreds ((x_30))
  :extrapreds ((x_31))
  :extrafuns ((x_32 Real))
  :extrafuns ((x_33 Real))
  :extrafuns ((x_34 Real))
  :extrafuns ((x_35 Real))
  :extrafuns ((x_36 Real))
  :extrafuns ((x_37 Real))
  :extrafuns ((x_38 Real))
  :extrapreds ((x_39))
  :extrapreds ((x_40))
  :extrafuns ((x_41 Real))
  :extrapreds ((x_42))
  :extrapreds ((x_43))
  :extrapreds ((x_44))
  :extrapreds ((x_45))
  :extrafuns ((x_46 Real))
  :extrafuns ((x_47 Real))
  :extrafuns ((x_48 Real))
  :extrafuns ((x_49 Real))
  :extrafuns ((x_50 Real))
  :extrafuns ((x_51 Real))
  :extrafuns ((x_52 Real))
  :extrapreds ((x_53))
  :extrapreds ((x_54))
  :extrafuns ((x_55 Real))
  :extrapreds ((x_56))
  :extrapreds ((x_57))
  :extrapreds ((x_58))
  :extrapreds ((x_59))
  :extrafuns ((x_60 Real))
  :extrafuns ((x_61 Real))
  :extrafuns ((x_62 Real))
  :extrafuns ((x_63 Real))
  :extrafuns ((x_64 Real))
  :extrafuns ((x_65 Real))
  :extrafuns ((x_66 Real))
  :extrapreds ((x_67))
  :extrapreds ((x_68))
  :extrafuns ((x_69 Real))
  :extrapreds ((x_70))
  :extrapreds ((x_71))
  :extrapreds ((x_72))
  :extrapreds ((x_73))
  :extrafuns ((x_74 Real))
  :extrafuns ((x_75 Real))
  :extrafuns ((x_76 Real))
  :extrafuns ((x_77 Real))
  :extrafuns ((x_78 Real))
  :extrafuns ((x_79 Real))
  :formula
(flet ($cvcl_12 (not x_67)) (flet ($cvcl_13 (not x_68)) (flet ($cvcl_14 (and $cvcl_12 $cvcl_13)) (flet ($cvcl_45 (not x_70)) (flet ($cvcl_46 (not x_71)) (flet ($cvcl_47 (and $cvcl_45 $cvcl_46)) (flet ($cvcl_32 (not x_72)) (flet ($cvcl_33 (not x_73)) (flet ($cvcl_35 (and $cvcl_32 $cvcl_33)) (flet ($cvcl_17 (and (iff x_70 x_56) (iff x_71 x_57))) (flet ($cvcl_42 (not x_56)) (flet ($cvcl_41 (not x_57)) (flet ($cvcl_38 (and $cvcl_42 $cvcl_41)) (flet ($cvcl_7 (and (iff x_67 x_53) (iff x_68 x_54))) (flet ($cvcl_28 (not x_58)) (flet ($cvcl_26 (not x_59)) (flet ($cvcl_21 (and $cvcl_28 $cvcl_26)) (flet ($cvcl_43 (and $cvcl_42 x_57)) (flet ($cvcl_15 (and (iff x_72 x_58) (iff x_73 x_59))) (flet ($cvcl_30 (and $cvcl_28 x_59)) (flet ($cvcl_9 (not x_53)) (flet ($cvcl_8 (not x_54)) (flet ($cvcl_3 (and $cvcl_9 $cvcl_8)) (flet ($cvcl_10 (and $cvcl_9 x_54)) (flet ($cvcl_62 (and (iff x_56 x_42) (iff x_57 x_43))) (flet ($cvcl_83 (not x_42)) (flet ($cvcl_82 (not x_43)) (flet ($cvcl_79 (and $cvcl_83 $cvcl_82)) (flet ($cvcl_55 (and (iff x_53 x_39) (iff x_54 x_40))) (flet ($cvcl_73 (not x_44)) (flet ($cvcl_71 (not x_45)) (flet ($cvcl_66 (and $cvcl_73 $cvcl_71)) (flet ($cvcl_84 (and $cvcl_83 x_43)) (flet ($cvcl_60 (and (iff x_58 x_44) (iff x_59 x_45))) (flet ($cvcl_75 (and $cvcl_73 x_45)) (flet ($cvcl_57 (not x_39)) (flet ($cvcl_56 (not x_40)) (flet ($cvcl_51 (and $cvcl_57 $cvcl_56)) (flet ($cvcl_58 (and $cvcl_57 x_40)) (flet ($cvcl_100 (and (iff x_42 x_28) (iff x_43 x_29))) (flet ($cvcl_121 (not x_28)) (flet ($cvcl_120 (not x_29)) (flet ($cvcl_117 (and $cvcl_121 $cvcl_120)) (flet ($cvcl_93 (and (iff x_39 x_25) (iff x_40 x_26))) (flet ($cvcl_111 (not x_30)) (flet ($cvcl_109 (not x_31)) (flet ($cvcl_104 (and $cvcl_111 $cvcl_109)) (flet ($cvcl_122 (and $cvcl_121 x_29)) (flet ($cvcl_98 (and (iff x_44 x_30) (iff x_45 x_31))) (flet ($cvcl_113 (and $cvcl_111 x_31)) (flet ($cvcl_95 (not x_25)) (flet ($cvcl_94 (not x_26)) (flet ($cvcl_89 (and $cvcl_95 $cvcl_94)) (flet ($cvcl_96 (and $cvcl_95 x_26)) (flet ($cvcl_138 (and (iff x_28 x_14) (iff x_29 x_15))) (flet ($cvcl_159 (not x_14)) (flet ($cvcl_158 (not x_15)) (flet ($cvcl_155 (and $cvcl_159 $cvcl_158)) (flet ($cvcl_131 (and (iff x_25 x_11) (iff x_26 x_12))) (flet ($cvcl_149 (not x_16)) (flet ($cvcl_147 (not x_17)) (flet ($cvcl_142 (and $cvcl_149 $cvcl_147)) (flet ($cvcl_160 (and $cvcl_159 x_15)) (flet ($cvcl_136 (and (iff x_30 x_16) (iff x_31 x_17))) (flet ($cvcl_151 (and $cvcl_149 x_17)) (flet ($cvcl_133 (not x_11)) (flet ($cvcl_132 (not x_12)) (flet ($cvcl_127 (and $cvcl_133 $cvcl_132)) (flet ($cvcl_134 (and $cvcl_133 x_12)) (flet ($cvcl_179 (and (iff x_14 x_4) (iff x_15 x_5))) (flet ($cvcl_200 (not x_4)) (flet ($cvcl_199 (not x_5)) (flet ($cvcl_196 (and $cvcl_200 $cvcl_199)) (flet ($cvcl_172 (and (iff x_11 x_0) (iff x_12 x_1))) (flet ($cvcl_190 (not x_2)) (flet ($cvcl_188 (not x_3)) (flet ($cvcl_182 (and $cvcl_190 $cvcl_188)) (flet ($cvcl_201 (and $cvcl_200 x_5)) (flet ($cvcl_177 (and (iff x_16 x_2) (iff x_17 x_3))) (flet ($cvcl_192 (and $cvcl_190 x_3)) (flet ($cvcl_174 (not x_0)) (flet ($cvcl_173 (not x_1)) (flet ($cvcl_167 (and $cvcl_174 $cvcl_173)) (flet ($cvcl_175 (and $cvcl_174 x_1)) (flet ($cvcl_165 (< (- cvclZero x_6) 0)) (flet ($cvcl_164 (< (- cvclZero x_7) 0)) (flet ($cvcl_163 (< (- cvclZero x_8) 0)) (flet ($cvcl_168 (= (- x_9 cvclZero) 0)) (flet ($cvcl_0 (< (- x_60 x_61) 0)) (flet ($cvcl_1 (if_then_else $cvcl_0 (< (- x_60 x_62) 0) (< (- x_61 x_62) 0))) (flet ($cvcl_37 (= (- x_76 x_62) 0)) (flet ($cvcl_16 (= (- x_75 x_61) 0)) (flet ($cvcl_18 (= (- x_74 x_60) 0)) (flet ($cvcl_2 (= (- x_69 x_55) 0)) (flet ($cvcl_19 (= (- x_66 cvclZero) 0)) (flet ($cvcl_4 (= (- x_64 x_62) 0)) (flet ($cvcl_5 (= (- x_55 cvclZero) 0)) (flet ($cvcl_6 (< (- x_64 x_76) 0)) (flet ($cvcl_20 (= (- x_66 cvclZero) 1)) (flet ($cvcl_23 (not $cvcl_5)) (flet ($cvcl_25 (= (- x_66 cvclZero) 2)) (flet ($cvcl_203 (= (- x_69 cvclZero) 1)) (flet ($cvcl_27 (= (- x_66 cvclZero) 3)) (flet ($cvcl_11 (= (- x_55 cvclZero) 1)) (flet ($cvcl_29 (= (- x_66 cvclZero) 4)) (flet ($cvcl_206 (not $cvcl_11)) (flet ($cvcl_34 (= (- x_66 cvclZero) 5)) (flet ($cvcl_36 (= (- x_69 cvclZero) 0)) (flet ($cvcl_22 (= (- x_64 x_61) 0)) (flet ($cvcl_24 (< (- x_64 x_75) 0)) (flet ($cvcl_204 (= (- x_69 cvclZero) 2)) (flet ($cvcl_31 (= (- x_55 cvclZero) 2)) (flet ($cvcl_207 (not $cvcl_31)) (flet ($cvcl_39 (= (- x_64 x_60) 0)) (flet ($cvcl_40 (< (- x_64 x_74) 0)) (flet ($cvcl_205 (= (- x_69 cvclZero) 3)) (flet ($cvcl_44 (= (- x_55 cvclZero) 3)) (flet ($cvcl_208 (not $cvcl_44)) (flet ($cvcl_48 (< (- x_46 x_47) 0)) (flet ($cvcl_49 (if_then_else $cvcl_48 (< (- x_46 x_48) 0) (< (- x_47 x_48) 0))) (flet ($cvcl_78 (= (- x_62 x_48) 0)) (flet ($cvcl_61 (= (- x_61 x_47) 0)) (flet ($cvcl_63 (= (- x_60 x_46) 0)) (flet ($cvcl_50 (= (- x_55 x_41) 0)) (flet ($cvcl_64 (= (- x_52 cvclZero) 0)) (flet ($cvcl_52 (= (- x_50 x_48) 0)) (flet ($cvcl_53 (= (- x_41 cvclZero) 0)) (flet ($cvcl_54 (< (- x_50 x_62) 0)) (flet ($cvcl_65 (= (- x_52 cvclZero) 1)) (flet ($cvcl_68 (not $cvcl_53)) (flet ($cvcl_70 (= (- x_52 cvclZero) 2)) (flet ($cvcl_72 (= (- x_52 cvclZero) 3)) (flet ($cvcl_59 (= (- x_41 cvclZero) 1)) (flet ($cvcl_74 (= (- x_52 cvclZero) 4)) (flet ($cvcl_209 (not $cvcl_59)) (flet ($cvcl_77 (= (- x_52 cvclZero) 5)) (flet ($cvcl_67 (= (- x_50 x_47) 0)) (flet ($cvcl_69 (< (- x_50 x_61) 0)) (flet ($cvcl_76 (= (- x_41 cvclZero) 2)) (flet ($cvcl_210 (not $cvcl_76)) (flet ($cvcl_80 (= (- x_50 x_46) 0)) (flet ($cvcl_81 (< (- x_50 x_60) 0)) (flet ($cvcl_85 (= (- x_41 cvclZero) 3)) (flet ($cvcl_211 (not $cvcl_85)) (flet ($cvcl_86 (< (- x_32 x_33) 0)) (flet ($cvcl_87 (if_then_else $cvcl_86 (< (- x_32 x_34) 0) (< (- x_33 x_34) 0))) (flet ($cvcl_116 (= (- x_48 x_34) 0)) (flet ($cvcl_99 (= (- x_47 x_33) 0)) (flet ($cvcl_101 (= (- x_46 x_32) 0)) (flet ($cvcl_88 (= (- x_41 x_27) 0)) (flet ($cvcl_102 (= (- x_38 cvclZero) 0)) (flet ($cvcl_90 (= (- x_36 x_34) 0)) (flet ($cvcl_91 (= (- x_27 cvclZero) 0)) (flet ($cvcl_92 (< (- x_36 x_48) 0)) (flet ($cvcl_103 (= (- x_38 cvclZero) 1)) (flet ($cvcl_106 (not $cvcl_91)) (flet ($cvcl_108 (= (- x_38 cvclZero) 2)) (flet ($cvcl_110 (= (- x_38 cvclZero) 3)) (flet ($cvcl_97 (= (- x_27 cvclZero) 1)) (flet ($cvcl_112 (= (- x_38 cvclZero) 4)) (flet ($cvcl_212 (not $cvcl_97)) (flet ($cvcl_115 (= (- x_38 cvclZero) 5)) (flet ($cvcl_105 (= (- x_36 x_33) 0)) (flet ($cvcl_107 (< (- x_36 x_47) 0)) (flet ($cvcl_114 (= (- x_27 cvclZero) 2)) (flet ($cvcl_213 (not $cvcl_114)) (flet ($cvcl_118 (= (- x_36 x_32) 0)) (flet ($cvcl_119 (< (- x_36 x_46) 0)) (flet ($cvcl_123 (= (- x_27 cvclZero) 3)) (flet ($cvcl_214 (not $cvcl_123)) (flet ($cvcl_124 (< (- x_18 x_19) 0)) (flet ($cvcl_125 (if_then_else $cvcl_124 (< (- x_18 x_20) 0) (< (- x_19 x_20) 0))) (flet ($cvcl_154 (= (- x_34 x_20) 0)) (flet ($cvcl_137 (= (- x_33 x_19) 0)) (flet ($cvcl_139 (= (- x_32 x_18) 0)) (flet ($cvcl_126 (= (- x_27 x_13) 0)) (flet ($cvcl_140 (= (- x_24 cvclZero) 0)) (flet ($cvcl_128 (= (- x_22 x_20) 0)) (flet ($cvcl_129 (= (- x_13 cvclZero) 0)) (flet ($cvcl_130 (< (- x_22 x_34) 0)) (flet ($cvcl_141 (= (- x_24 cvclZero) 1)) (flet ($cvcl_144 (not $cvcl_129)) (flet ($cvcl_146 (= (- x_24 cvclZero) 2)) (flet ($cvcl_148 (= (- x_24 cvclZero) 3)) (flet ($cvcl_135 (= (- x_13 cvclZero) 1)) (flet ($cvcl_150 (= (- x_24 cvclZero) 4)) (flet ($cvcl_215 (not $cvcl_135)) (flet ($cvcl_153 (= (- x_24 cvclZero) 5)) (flet ($cvcl_143 (= (- x_22 x_19) 0)) (flet ($cvcl_145 (< (- x_22 x_33) 0)) (flet ($cvcl_152 (= (- x_13 cvclZero) 2)) (flet ($cvcl_216 (not $cvcl_152)) (flet ($cvcl_156 (= (- x_22 x_18) 0)) (flet ($cvcl_157 (< (- x_22 x_32) 0)) (flet ($cvcl_161 (= (- x_13 cvclZero) 3)) (flet ($cvcl_217 (not $cvcl_161)) (flet ($cvcl_162 (< (- x_8 x_7) 0)) (flet ($cvcl_166 (if_then_else $cvcl_162 (< (- x_8 x_6) 0) (< (- x_7 x_6) 0))) (flet ($cvcl_195 (= (- x_20 x_6) 0)) (flet ($cvcl_178 (= (- x_19 x_7) 0)) (flet ($cvcl_180 (= (- x_18 x_8) 0)) (flet ($cvcl_169 (= (- x_13 x_9) 0)) (flet ($cvcl_181 (= (- x_10 cvclZero) 0)) (flet ($cvcl_170 (= (- cvclZero x_6) 0)) (flet ($cvcl_171 (< (- cvclZero x_20) 0)) (flet ($cvcl_183 (= (- x_10 cvclZero) 1)) (flet ($cvcl_185 (not $cvcl_168)) (flet ($cvcl_187 (= (- x_10 cvclZero) 2)) (flet ($cvcl_189 (= (- x_10 cvclZero) 3)) (flet ($cvcl_176 (= (- x_9 cvclZero) 1)) (flet ($cvcl_191 (= (- x_10 cvclZero) 4)) (flet ($cvcl_218 (not $cvcl_176)) (flet ($cvcl_194 (= (- x_10 cvclZero) 5)) (flet ($cvcl_184 (= (- cvclZero x_7) 0)) (flet ($cvcl_186 (< (- cvclZero x_19) 0)) (flet ($cvcl_193 (= (- x_9 cvclZero) 2)) (flet ($cvcl_219 (not $cvcl_193)) (flet ($cvcl_197 (= (- cvclZero x_8) 0)) (flet ($cvcl_198 (< (- cvclZero x_18) 0)) (flet ($cvcl_202 (= (- x_9 cvclZero) 3)) (flet ($cvcl_220 (not $cvcl_202)) (and (and (and (and (and (and (and (and (and (and (and (and (and (and (and (and (and (and (and (and (and (and (and (and (not (< (- x_9 cvclZero) 0)) (<= (- x_9 cvclZero) 3)) (not (< (- x_13 cvclZero) 0))) (<= (- x_13 cvclZero) 3)) (not (< (- x_27 cvclZero) 0))) (<= (- x_27 cvclZero) 3)) (not (< (- x_41 cvclZero) 0))) (<= (- x_41 cvclZero) 3)) (not (< (- x_55 cvclZero) 0))) (<= (- x_55 cvclZero) 3)) (not (< (- x_69 cvclZero) 0))) (<= (- x_69 cvclZero) 3)) $cvcl_167) $cvcl_182) $cvcl_196) $cvcl_165) $cvcl_164) $cvcl_163) $cvcl_168) (or (and (and (and (and (and (and (and (and (and (= (- x_77 cvclZero) 0) (if_then_else $cvcl_1 (if_then_else $cvcl_0 (< (- x_64 x_60) 0) (< (- x_64 x_61) 0)) (< (- x_64 x_62) 0))) (if_then_else $cvcl_1 (if_then_else $cvcl_0 (= (- x_78 x_60) 0) (= (- x_78 x_61) 0)) (= (- x_78 x_62) 0))) $cvcl_7) $cvcl_15) $cvcl_17) $cvcl_37) $cvcl_16) $cvcl_18) $cvcl_2)  (and (and (= (- x_77 cvclZero) 1) (or (or (and (and (and (and (and (= (- x_79 cvclZero) 1) (or (or (or (or (or (and (and (and (and (and (and (and (and $cvcl_19 $cvcl_3) $cvcl_4) $cvcl_5) x_67) $cvcl_13) $cvcl_6) (<= (- x_76 x_64) 2)) $cvcl_2)  (and (and (and (and (and (and $cvcl_20 $cvcl_3) $cvcl_4) $cvcl_23) $cvcl_6) $cvcl_2) $cvcl_7) )  (and (and (and (and (and (and (and $cvcl_25 x_53) $cvcl_8) $cvcl_4) $cvcl_12) x_68) $cvcl_203) (<= (- x_64 x_76) (~ 4))) )  (and (and (and (and (and (and (and $cvcl_27 $cvcl_10) $cvcl_4) $cvcl_11) x_67) x_68) $cvcl_6) $cvcl_2) )  (and (and (and (and (and (and $cvcl_29 $cvcl_10) $cvcl_4) $cvcl_206) $cvcl_14) $cvcl_6) $cvcl_2) )  (and (and (and (and (and (and $cvcl_34 x_53) x_54) $cvcl_4) $cvcl_14) $cvcl_36) $cvcl_6) )) $cvcl_15) $cvcl_16) $cvcl_17) $cvcl_18)  (and (and (and (and (and (= (- x_79 cvclZero) 2) (or (or (or (or (or (and (and (and (and (and (and (and (and $cvcl_19 $cvcl_21) $cvcl_22) $cvcl_5) x_72) $cvcl_33) $cvcl_24) (<= (- x_75 x_64) 2)) $cvcl_2)  (and (and (and (and (and (and $cvcl_20 $cvcl_21) $cvcl_22) $cvcl_23) $cvcl_24) $cvcl_2) $cvcl_15) )  (and (and (and (and (and (and (and $cvcl_25 x_58) $cvcl_26) $cvcl_22) $cvcl_32) x_73) $cvcl_204) (<= (- x_64 x_75) (~ 4))) )  (and (and (and (and (and (and (and $cvcl_27 $cvcl_30) $cvcl_22) $cvcl_31) x_72) x_73) $cvcl_24) $cvcl_2) )  (and (and (and (and (and (and $cvcl_29 $cvcl_30) $cvcl_22) $cvcl_207) $cvcl_35) $cvcl_24) $cvcl_2) )  (and (and (and (and (and (and $cvcl_34 x_58) x_59) $cvcl_22) $cvcl_35) $cvcl_36) $cvcl_24) )) $cvcl_7) $cvcl_37) $cvcl_17) $cvcl_18) )  (and (and (and (and (and (= (- x_79 cvclZero) 3) (or (or (or (or (or (and (and (and (and (and (and (and (and $cvcl_19 $cvcl_38) $cvcl_39) $cvcl_5) x_70) $cvcl_46) $cvcl_40) (<= (- x_74 x_64) 2)) $cvcl_2)  (and (and (and (and (and (and $cvcl_20 $cvcl_38) $cvcl_39) $cvcl_23) $cvcl_40) $cvcl_2) $cvcl_17) )  (and (and (and (and (and (and (and $cvcl_25 x_56) $cvcl_41) $cvcl_39) $cvcl_45) x_71) $cvcl_205) (<= (- x_64 x_74) (~ 4))) )  (and (and (and (and (and (and (and $cvcl_27 $cvcl_43) $cvcl_39) $cvcl_44) x_70) x_71) $cvcl_40) $cvcl_2) )  (and (and (and (and (and (and $cvcl_29 $cvcl_43) $cvcl_39) $cvcl_208) $cvcl_47) $cvcl_40) $cvcl_2) )  (and (and (and (and (and (and $cvcl_34 x_56) x_57) $cvcl_39) $cvcl_47) $cvcl_36) $cvcl_40) )) $cvcl_7) $cvcl_37) $cvcl_15) $cvcl_16) )) (= (- x_78 x_64) 0)) )) (or (and (and (and (and (and (and (and (and (and (= (- x_63 cvclZero) 0) (if_then_else $cvcl_49 (if_then_else $cvcl_48 (< (- x_50 x_46) 0) (< (- x_50 x_47) 0)) (< (- x_50 x_48) 0))) (if_then_else $cvcl_49 (if_then_else $cvcl_48 (= (- x_64 x_46) 0) (= (- x_64 x_47) 0)) (= (- x_64 x_48) 0))) $cvcl_55) $cvcl_60) $cvcl_62) $cvcl_78) $cvcl_61) $cvcl_63) $cvcl_50)  (and (and (= (- x_63 cvclZero) 1) (or (or (and (and (and (and (and (= (- x_65 cvclZero) 1) (or (or (or (or (or (and (and (and (and (and (and (and (and $cvcl_64 $cvcl_51) $cvcl_52) $cvcl_53) x_53) $cvcl_8) $cvcl_54) (<= (- x_62 x_50) 2)) $cvcl_50)  (and (and (and (and (and (and $cvcl_65 $cvcl_51) $cvcl_52) $cvcl_68) $cvcl_54) $cvcl_50) $cvcl_55) )  (and (and (and (and (and (and (and $cvcl_70 x_39) $cvcl_56) $cvcl_52) $cvcl_9) x_54) $cvcl_11) (<= (- x_50 x_62) (~ 4))) )  (and (and (and (and (and (and (and $cvcl_72 $cvcl_58) $cvcl_52) $cvcl_59) x_53) x_54) $cvcl_54) $cvcl_50) )  (and (and (and (and (and (and $cvcl_74 $cvcl_58) $cvcl_52) $cvcl_209) $cvcl_3) $cvcl_54) $cvcl_50) )  (and (and (and (and (and (and $cvcl_77 x_39) x_40) $cvcl_52) $cvcl_3) $cvcl_5) $cvcl_54) )) $cvcl_60) $cvcl_61) $cvcl_62) $cvcl_63)  (and (and (and (and (and (= (- x_65 cvclZero) 2) (or (or (or (or (or (and (and (and (and (and (and (and (and $cvcl_64 $cvcl_66) $cvcl_67) $cvcl_53) x_58) $cvcl_26) $cvcl_69) (<= (- x_61 x_50) 2)) $cvcl_50)  (and (and (and (and (and (and $cvcl_65 $cvcl_66) $cvcl_67) $cvcl_68) $cvcl_69) $cvcl_50) $cvcl_60) )  (and (and (and (and (and (and (and $cvcl_70 x_44) $cvcl_71) $cvcl_67) $cvcl_28) x_59) $cvcl_31) (<= (- x_50 x_61) (~ 4))) )  (and (and (and (and (and (and (and $cvcl_72 $cvcl_75) $cvcl_67) $cvcl_76) x_58) x_59) $cvcl_69) $cvcl_50) )  (and (and (and (and (and (and $cvcl_74 $cvcl_75) $cvcl_67) $cvcl_210) $cvcl_21) $cvcl_69) $cvcl_50) )  (and (and (and (and (and (and $cvcl_77 x_44) x_45) $cvcl_67) $cvcl_21) $cvcl_5) $cvcl_69) )) $cvcl_55) $cvcl_78) $cvcl_62) $cvcl_63) )  (and (and (and (and (and (= (- x_65 cvclZero) 3) (or (or (or (or (or (and (and (and (and (and (and (and (and $cvcl_64 $cvcl_79) $cvcl_80) $cvcl_53) x_56) $cvcl_41) $cvcl_81) (<= (- x_60 x_50) 2)) $cvcl_50)  (and (and (and (and (and (and $cvcl_65 $cvcl_79) $cvcl_80) $cvcl_68) $cvcl_81) $cvcl_50) $cvcl_62) )  (and (and (and (and (and (and (and $cvcl_70 x_42) $cvcl_82) $cvcl_80) $cvcl_42) x_57) $cvcl_44) (<= (- x_50 x_60) (~ 4))) )  (and (and (and (and (and (and (and $cvcl_72 $cvcl_84) $cvcl_80) $cvcl_85) x_56) x_57) $cvcl_81) $cvcl_50) )  (and (and (and (and (and (and $cvcl_74 $cvcl_84) $cvcl_80) $cvcl_211) $cvcl_38) $cvcl_81) $cvcl_50) )  (and (and (and (and (and (and $cvcl_77 x_42) x_43) $cvcl_80) $cvcl_38) $cvcl_5) $cvcl_81) )) $cvcl_55) $cvcl_78) $cvcl_60) $cvcl_61) )) (= (- x_64 x_50) 0)) )) (or (and (and (and (and (and (and (and (and (and (= (- x_49 cvclZero) 0) (if_then_else $cvcl_87 (if_then_else $cvcl_86 (< (- x_36 x_32) 0) (< (- x_36 x_33) 0)) (< (- x_36 x_34) 0))) (if_then_else $cvcl_87 (if_then_else $cvcl_86 (= (- x_50 x_32) 0) (= (- x_50 x_33) 0)) (= (- x_50 x_34) 0))) $cvcl_93) $cvcl_98) $cvcl_100) $cvcl_116) $cvcl_99) $cvcl_101) $cvcl_88)  (and (and (= (- x_49 cvclZero) 1) (or (or (and (and (and (and (and (= (- x_51 cvclZero) 1) (or (or (or (or (or (and (and (and (and (and (and (and (and $cvcl_102 $cvcl_89) $cvcl_90) $cvcl_91) x_39) $cvcl_56) $cvcl_92) (<= (- x_48 x_36) 2)) $cvcl_88)  (and (and (and (and (and (and $cvcl_103 $cvcl_89) $cvcl_90) $cvcl_106) $cvcl_92) $cvcl_88) $cvcl_93) )  (and (and (and (and (and (and (and $cvcl_108 x_25) $cvcl_94) $cvcl_90) $cvcl_57) x_40) $cvcl_59) (<= (- x_36 x_48) (~ 4))) )  (and (and (and (and (and (and (and $cvcl_110 $cvcl_96) $cvcl_90) $cvcl_97) x_39) x_40) $cvcl_92) $cvcl_88) )  (and (and (and (and (and (and $cvcl_112 $cvcl_96) $cvcl_90) $cvcl_212) $cvcl_51) $cvcl_92) $cvcl_88) )  (and (and (and (and (and (and $cvcl_115 x_25) x_26) $cvcl_90) $cvcl_51) $cvcl_53) $cvcl_92) )) $cvcl_98) $cvcl_99) $cvcl_100) $cvcl_101)  (and (and (and (and (and (= (- x_51 cvclZero) 2) (or (or (or (or (or (and (and (and (and (and (and (and (and $cvcl_102 $cvcl_104) $cvcl_105) $cvcl_91) x_44) $cvcl_71) $cvcl_107) (<= (- x_47 x_36) 2)) $cvcl_88)  (and (and (and (and (and (and $cvcl_103 $cvcl_104) $cvcl_105) $cvcl_106) $cvcl_107) $cvcl_88) $cvcl_98) )  (and (and (and (and (and (and (and $cvcl_108 x_30) $cvcl_109) $cvcl_105) $cvcl_73) x_45) $cvcl_76) (<= (- x_36 x_47) (~ 4))) )  (and (and (and (and (and (and (and $cvcl_110 $cvcl_113) $cvcl_105) $cvcl_114) x_44) x_45) $cvcl_107) $cvcl_88) )  (and (and (and (and (and (and $cvcl_112 $cvcl_113) $cvcl_105) $cvcl_213) $cvcl_66) $cvcl_107) $cvcl_88) )  (and (and (and (and (and (and $cvcl_115 x_30) x_31) $cvcl_105) $cvcl_66) $cvcl_53) $cvcl_107) )) $cvcl_93) $cvcl_116) $cvcl_100) $cvcl_101) )  (and (and (and (and (and (= (- x_51 cvclZero) 3) (or (or (or (or (or (and (and (and (and (and (and (and (and $cvcl_102 $cvcl_117) $cvcl_118) $cvcl_91) x_42) $cvcl_82) $cvcl_119) (<= (- x_46 x_36) 2)) $cvcl_88)  (and (and (and (and (and (and $cvcl_103 $cvcl_117) $cvcl_118) $cvcl_106) $cvcl_119) $cvcl_88) $cvcl_100) )  (and (and (and (and (and (and (and $cvcl_108 x_28) $cvcl_120) $cvcl_118) $cvcl_83) x_43) $cvcl_85) (<= (- x_36 x_46) (~ 4))) )  (and (and (and (and (and (and (and $cvcl_110 $cvcl_122) $cvcl_118) $cvcl_123) x_42) x_43) $cvcl_119) $cvcl_88) )  (and (and (and (and (and (and $cvcl_112 $cvcl_122) $cvcl_118) $cvcl_214) $cvcl_79) $cvcl_119) $cvcl_88) )  (and (and (and (and (and (and $cvcl_115 x_28) x_29) $cvcl_118) $cvcl_79) $cvcl_53) $cvcl_119) )) $cvcl_93) $cvcl_116) $cvcl_98) $cvcl_99) )) (= (- x_50 x_36) 0)) )) (or (and (and (and (and (and (and (and (and (and (= (- x_35 cvclZero) 0) (if_then_else $cvcl_125 (if_then_else $cvcl_124 (< (- x_22 x_18) 0) (< (- x_22 x_19) 0)) (< (- x_22 x_20) 0))) (if_then_else $cvcl_125 (if_then_else $cvcl_124 (= (- x_36 x_18) 0) (= (- x_36 x_19) 0)) (= (- x_36 x_20) 0))) $cvcl_131) $cvcl_136) $cvcl_138) $cvcl_154) $cvcl_137) $cvcl_139) $cvcl_126)  (and (and (= (- x_35 cvclZero) 1) (or (or (and (and (and (and (and (= (- x_37 cvclZero) 1) (or (or (or (or (or (and (and (and (and (and (and (and (and $cvcl_140 $cvcl_127) $cvcl_128) $cvcl_129) x_25) $cvcl_94) $cvcl_130) (<= (- x_34 x_22) 2)) $cvcl_126)  (and (and (and (and (and (and $cvcl_141 $cvcl_127) $cvcl_128) $cvcl_144) $cvcl_130) $cvcl_126) $cvcl_131) )  (and (and (and (and (and (and (and $cvcl_146 x_11) $cvcl_132) $cvcl_128) $cvcl_95) x_26) $cvcl_97) (<= (- x_22 x_34) (~ 4))) )  (and (and (and (and (and (and (and $cvcl_148 $cvcl_134) $cvcl_128) $cvcl_135) x_25) x_26) $cvcl_130) $cvcl_126) )  (and (and (and (and (and (and $cvcl_150 $cvcl_134) $cvcl_128) $cvcl_215) $cvcl_89) $cvcl_130) $cvcl_126) )  (and (and (and (and (and (and $cvcl_153 x_11) x_12) $cvcl_128) $cvcl_89) $cvcl_91) $cvcl_130) )) $cvcl_136) $cvcl_137) $cvcl_138) $cvcl_139)  (and (and (and (and (and (= (- x_37 cvclZero) 2) (or (or (or (or (or (and (and (and (and (and (and (and (and $cvcl_140 $cvcl_142) $cvcl_143) $cvcl_129) x_30) $cvcl_109) $cvcl_145) (<= (- x_33 x_22) 2)) $cvcl_126)  (and (and (and (and (and (and $cvcl_141 $cvcl_142) $cvcl_143) $cvcl_144) $cvcl_145) $cvcl_126) $cvcl_136) )  (and (and (and (and (and (and (and $cvcl_146 x_16) $cvcl_147) $cvcl_143) $cvcl_111) x_31) $cvcl_114) (<= (- x_22 x_33) (~ 4))) )  (and (and (and (and (and (and (and $cvcl_148 $cvcl_151) $cvcl_143) $cvcl_152) x_30) x_31) $cvcl_145) $cvcl_126) )  (and (and (and (and (and (and $cvcl_150 $cvcl_151) $cvcl_143) $cvcl_216) $cvcl_104) $cvcl_145) $cvcl_126) )  (and (and (and (and (and (and $cvcl_153 x_16) x_17) $cvcl_143) $cvcl_104) $cvcl_91) $cvcl_145) )) $cvcl_131) $cvcl_154) $cvcl_138) $cvcl_139) )  (and (and (and (and (and (= (- x_37 cvclZero) 3) (or (or (or (or (or (and (and (and (and (and (and (and (and $cvcl_140 $cvcl_155) $cvcl_156) $cvcl_129) x_28) $cvcl_120) $cvcl_157) (<= (- x_32 x_22) 2)) $cvcl_126)  (and (and (and (and (and (and $cvcl_141 $cvcl_155) $cvcl_156) $cvcl_144) $cvcl_157) $cvcl_126) $cvcl_138) )  (and (and (and (and (and (and (and $cvcl_146 x_14) $cvcl_158) $cvcl_156) $cvcl_121) x_29) $cvcl_123) (<= (- x_22 x_32) (~ 4))) )  (and (and (and (and (and (and (and $cvcl_148 $cvcl_160) $cvcl_156) $cvcl_161) x_28) x_29) $cvcl_157) $cvcl_126) )  (and (and (and (and (and (and $cvcl_150 $cvcl_160) $cvcl_156) $cvcl_217) $cvcl_117) $cvcl_157) $cvcl_126) )  (and (and (and (and (and (and $cvcl_153 x_14) x_15) $cvcl_156) $cvcl_117) $cvcl_91) $cvcl_157) )) $cvcl_131) $cvcl_154) $cvcl_136) $cvcl_137) )) (= (- x_36 x_22) 0)) )) (or (and (and (and (and (and (and (and (and (and (= (- x_21 cvclZero) 0) (if_then_else $cvcl_166 (if_then_else $cvcl_162 $cvcl_163 $cvcl_164) $cvcl_165)) (if_then_else $cvcl_166 (if_then_else $cvcl_162 (= (- x_22 x_8) 0) (= (- x_22 x_7) 0)) (= (- x_22 x_6) 0))) $cvcl_172) $cvcl_177) $cvcl_179) $cvcl_195) $cvcl_178) $cvcl_180) $cvcl_169)  (and (and (= (- x_21 cvclZero) 1) (or (or (and (and (and (and (and (= (- x_23 cvclZero) 1) (or (or (or (or (or (and (and (and (and (and (and (and (and $cvcl_181 $cvcl_167) $cvcl_170) $cvcl_168) x_11) $cvcl_132) $cvcl_171) (<= (- x_20 cvclZero) 2)) $cvcl_169)  (and (and (and (and (and (and $cvcl_183 $cvcl_167) $cvcl_170) $cvcl_185) $cvcl_171) $cvcl_169) $cvcl_172) )  (and (and (and (and (and (and (and $cvcl_187 x_0) $cvcl_173) $cvcl_170) $cvcl_133) x_12) $cvcl_135) (<= (- cvclZero x_20) (~ 4))) )  (and (and (and (and (and (and (and $cvcl_189 $cvcl_175) $cvcl_170) $cvcl_176) x_11) x_12) $cvcl_171) $cvcl_169) )  (and (and (and (and (and (and $cvcl_191 $cvcl_175) $cvcl_170) $cvcl_218) $cvcl_127) $cvcl_171) $cvcl_169) )  (and (and (and (and (and (and $cvcl_194 x_0) x_1) $cvcl_170) $cvcl_127) $cvcl_129) $cvcl_171) )) $cvcl_177) $cvcl_178) $cvcl_179) $cvcl_180)  (and (and (and (and (and (= (- x_23 cvclZero) 2) (or (or (or (or (or (and (and (and (and (and (and (and (and $cvcl_181 $cvcl_182) $cvcl_184) $cvcl_168) x_16) $cvcl_147) $cvcl_186) (<= (- x_19 cvclZero) 2)) $cvcl_169)  (and (and (and (and (and (and $cvcl_183 $cvcl_182) $cvcl_184) $cvcl_185) $cvcl_186) $cvcl_169) $cvcl_177) )  (and (and (and (and (and (and (and $cvcl_187 x_2) $cvcl_188) $cvcl_184) $cvcl_149) x_17) $cvcl_152) (<= (- cvclZero x_19) (~ 4))) )  (and (and (and (and (and (and (and $cvcl_189 $cvcl_192) $cvcl_184) $cvcl_193) x_16) x_17) $cvcl_186) $cvcl_169) )  (and (and (and (and (and (and $cvcl_191 $cvcl_192) $cvcl_184) $cvcl_219) $cvcl_142) $cvcl_186) $cvcl_169) )  (and (and (and (and (and (and $cvcl_194 x_2) x_3) $cvcl_184) $cvcl_142) $cvcl_129) $cvcl_186) )) $cvcl_172) $cvcl_195) $cvcl_179) $cvcl_180) )  (and (and (and (and (and (= (- x_23 cvclZero) 3) (or (or (or (or (or (and (and (and (and (and (and (and (and $cvcl_181 $cvcl_196) $cvcl_197) $cvcl_168) x_14) $cvcl_158) $cvcl_198) (<= (- x_18 cvclZero) 2)) $cvcl_169)  (and (and (and (and (and (and $cvcl_183 $cvcl_196) $cvcl_197) $cvcl_185) $cvcl_198) $cvcl_169) $cvcl_179) )  (and (and (and (and (and (and (and $cvcl_187 x_4) $cvcl_199) $cvcl_197) $cvcl_159) x_15) $cvcl_161) (<= (- cvclZero x_18) (~ 4))) )  (and (and (and (and (and (and (and $cvcl_189 $cvcl_201) $cvcl_197) $cvcl_202) x_14) x_15) $cvcl_198) $cvcl_169) )  (and (and (and (and (and (and $cvcl_191 $cvcl_201) $cvcl_197) $cvcl_220) $cvcl_155) $cvcl_198) $cvcl_169) )  (and (and (and (and (and (and $cvcl_194 x_4) x_5) $cvcl_197) $cvcl_155) $cvcl_129) $cvcl_198) )) $cvcl_172) $cvcl_195) $cvcl_177) $cvcl_178) )) (= (- x_22 cvclZero) 0)) )) (or (or (or (or (or (or (or (or (or (or (or (or (or (or (or (or (or (and (and x_67 x_68) (not $cvcl_203))  (and (and x_72 x_73) (not $cvcl_204)) )  (and (and x_70 x_71) (not $cvcl_205)) )  (and (and x_53 x_54) $cvcl_206) )  (and (and x_58 x_59) $cvcl_207) )  (and (and x_56 x_57) $cvcl_208) )  (and (and x_39 x_40) $cvcl_209) )  (and (and x_44 x_45) $cvcl_210) )  (and (and x_42 x_43) $cvcl_211) )  (and (and x_25 x_26) $cvcl_212) )  (and (and x_30 x_31) $cvcl_213) )  (and (and x_28 x_29) $cvcl_214) )  (and (and x_11 x_12) $cvcl_215) )  (and (and x_16 x_17) $cvcl_216) )  (and (and x_14 x_15) $cvcl_217) )  (and (and x_0 x_1) $cvcl_218) )  (and (and x_2 x_3) $cvcl_219) )  (and (and x_4 x_5) $cvcl_220) )))))))))))))))))))))))))))))))))))))))))))))))))))))))))))))))))))))))))))))))))))))))))))))))))))))))))))))))))))))))))))))))))))))))))))))))))))))))))))))))))))))))))))))))))))))))))))))))))))))))))))))))))))))))))))))))
)
