results/res_prop_muc/res_Cimatti_mathsat_cores/QF_RDL/fischer3-mutex-5.smt.smt2.res
unsat
( c100
  c1004
  c1015
  c1019
  c1024
  c1036
  c1039
  c1042
  c1043
  c1044
  c1046
  c1047
  c1056
  c106
  c1066
  c107
  c1076
  c108
  c1085
  c1097
  c110
  c1109
  c111
  c1110
  c1112
  c1115
  c1116
  c1117
  c1119
  c1120
  c1129
  c1139
  c1149
  c1158
  c1170
  c1182
  c1183
  c1185
  c1188
  c1189
  c1190
  c1192
  c1193
  c12
  c120
  c1202
  c1203
  c121
  c1210
  c1218
  c1222
  c1226
  c1230
  c1260
  c1261
  c1262
  c1263
  c1265
  c1269
  c1288
  c1298
  c13
  c130
  c1308
  c1318
  c132
  c1336
  c1345
  c1354
  c1369
  c1379
  c1389
  c1399
  c14
  c140
  c1409
  c141
  c1418
  c1427
  c1442
  c1452
  c1462
  c1472
  c1482
  c1491
  c15
  c1500
  c1514
  c152
  c1522
  c1526
  c1530
  c1534
  c1538
  c1542
  c1572
  c1573
  c1574
  c1575
  c1576
  c1577
  c158
  c1581
  c1583
  c1587
  c1591
  c1594
  c1598
  c16
  c1602
  c1607
  c1611
  c1615
  c1618
  c1619
  c1623
  c1627
  c1630
  c1631
  c1634
  c1635
  c1638
  c1639
  c164
  c1643
  c1645
  c1651
  c1652
  c1654
  c1655
  c1664
  c17
  c171
  c173
  c179
  c18
  c180
  c181
  c183
  c184
  c19
  c193
  c194
  c2
  c20
  c203
  c205
  c21
  c213
  c214
  c225
  c231
  c237
  c244
  c246
  c25
  c252
  c253
  c254
  c256
  c257
  c266
  c274
  c282
  c286
  c29
  c290
  c294
  c324
  c325
  c326
  c327
  c329
  c33
  c333
  c337
  c345
  c351
  c352
  c361
  c363
  c37
  c371
  c372
  c383
  c385
  c39
  c391
  c395
  c398
  c4
  c40
  c400
  c412
  c418
  c420
  c423
  c433
  c442
  c452
  c461
  c464
  c466
  c467
  c475
  c477
  c485
  c488
  c49
  c491
  c493
  c495
  c496
  c506
  c51
  c515
  c525
  c534
  c537
  c539
  c540
  c548
  c550
  c558
  c561
  c564
  c566
  c568
  c569
  c578
  c579
  c586
  c59
  c590
  c594
  c602
  c637
  c639
  c640
  c641
  c645
  c649
  c65
  c653
  c657
  c661
  c664
  c673
  c683
  c692
  c695
  c696
  c697
  c698
  c703
  c71
  c712
  c724
  c727
  c73
  c730
  c731
  c732
  c734
  c735
  c745
  c754
  c764
  c773
  c775
  c785
  c79
  c797
  c800
  c803
  c805
  c808
  c818
  c827
  c83
  c837
  c846
  c848
  c858
  c86
  c870
  c873
  c876
  c878
  c881
  c890
  c891
  c898
  c906
  c914
  c92
  c949
  c951
  c953
  c957
  c961
  c965
  c969
  c973
  c975
  c985
  c995 )
